NSW=100
PREC=Normal
IVDW=10

RANDOM_SEED =         706023541                0                0

NPAR=2

LWAVE=.FALSE.
LCHARG=.FALSE.
ISMEAR=-1
SIGMA=0.0258
ISYM=0

ENCUT=300
EDIFF=1e-6
IBRION=0;
POTIM=1;
MDALGO=3;
ISIF = 3
LANGEVIN_GAMMA_L = 10
PMASS = 10
LANGEVIN_GAMMA = 1.0
#LCNOISE = .TRUE.
#CNOISEM = 10
TEBEG=300

LREAL=.FALSE.

ML_LMLFF = .TRUE.
ML_MODE = run
